#---------------------------------------------------
# Lammps input file for unsolvated carbon nanotube example.
# 
# José O. Sotero Esteva, Lemuel I. Rivera Cantú
#  (jose.sotero@upr.edu, lemuel.rivera6@upr.edu)
#
# Modified from LAMMPS documentation example
# Solvated 5-mer chignolin
#---------------------------------------------------

units		real
atom_style	full

pair_style	lj/charmm/coul/long 8.0 10.0 10.0
bond_style      harmonic
angle_style     charmm
dihedral_style  charmm
improper_style  harmonic
kspace_style	pppm 0.0001

read_data	2rvd.data

neighbor	2.0 bin
neigh_modify	delay 5

timestep	1.0

thermo_style	multi
thermo		50

fix		1 all nvt temp 275.0 275.0 100.0 tchain 1
#fix		2 all shake 0.0001 10 100 b 4 6 8 10 12 14 18 a 31

group		chignolin type <= 12


dump		2 chignolin image 25 chignolin.*.jpg type type &
		axes yes 0.8 0.02 view 60 -30 bond atom 0.5

run		300

