#---------------------------------------------------
# Lammps input file for unsolvated carbon nanotube example.
# 
# José O. Sotero Esteva
#  (jose.sotero@upr.edu)
#
# Modified from LAMMPS documentation example.
#---------------------------------------------------

units		real
atom_style	full

pair_style	lj/charmm/coul/charmm 8.0 10.0
bond_style      harmonic
angle_style     charmm
dihedral_style  charmm
improper_style  harmonic
kspace_style	none

read_data	tubos.data

neighbor	2.0 bin
neigh_modify	delay 5

timestep	2.0

thermo_style	multi
thermo		1000

fix		1 all nvt temp 275.0 275.0 100.0 tchain 1

group		tube type <= 12

dump		1 tube atom 10 dump.tube

dump		2 tube image 25 image.*.jpg type type &
		axes yes 0.8 0.02 view 60 -30 bond atom 0.5
dump_modify	2 pad 3

run		3000

